data;

set A := 986348 990350 344814 54200 724169 165541 943320 642968 581781 201885 196788 777661 262317 176462 601303 736098 369776 289247 696057 826415 543998 240205 843060 428928 319674 402597 159554 144612 607945 26885 448642 600155 717137 11486 667826 344087 156538 947956 534070 503291 722672 224539 393615 393311 82334 771516 537381 817481 990451 182222 245246 794164 143521 570012 889731 870924 650264 580549 48833 242352 428175 534518 987941 562415;
param T := 16000000;

end;
